certificates/rado_a9_c295_N33.cnf
c Rad2 upper bound instance: x1 + 9*x2 - x3 = 295, interval [1,33]
p cnf 33 164
1 3 33 0
-1 -3 -33 0
2 4 33 0
-2 -4 -33 0
3 5 33 0
-3 -5 -33 0
4 6 33 0
-4 -6 -33 0
5 7 33 0
-5 -7 -33 0
6 8 33 0
-6 -8 -33 0
7 9 33 0
-7 -9 -33 0
1 8 32 0
-1 -8 -32 0
8 10 33 0
-8 -10 -33 0
2 9 32 0
-2 -9 -32 0
9 11 33 0
-9 -11 -33 0
3 10 32 0
-3 -10 -32 0
10 12 33 0
-10 -12 -33 0
4 11 32 0
-4 -11 -32 0
11 13 33 0
-11 -13 -33 0
5 12 32 0
-5 -12 -32 0
12 14 33 0
-12 -14 -33 0
6 13 32 0
-6 -13 -32 0
13 15 33 0
-13 -15 -33 0
7 14 32 0
-7 -14 -32 0
14 16 33 0
-14 -16 -33 0
8 15 32 0
-8 -15 -32 0
15 17 33 0
-15 -17 -33 0
9 16 32 0
-9 -16 -32 0
16 18 33 0
-16 -18 -33 0
1 17 31 0
-1 -17 -31 0
10 17 32 0
-10 -17 -32 0
17 19 33 0
-17 -19 -33 0
2 18 31 0
-2 -18 -31 0
11 18 32 0
-11 -18 -32 0
18 20 33 0
-18 -20 -33 0
3 19 31 0
-3 -19 -31 0
12 19 32 0
-12 -19 -32 0
19 21 33 0
-19 -21 -33 0
4 20 31 0
-4 -20 -31 0
13 20 32 0
-13 -20 -32 0
20 22 33 0
-20 -22 -33 0
5 21 31 0
-5 -21 -31 0
14 21 32 0
-14 -21 -32 0
21 23 33 0
-21 -23 -33 0
6 22 31 0
-6 -22 -31 0
15 22 32 0
-15 -22 -32 0
22 24 33 0
-22 -24 -33 0
7 23 31 0
-7 -23 -31 0
16 23 32 0
-16 -23 -32 0
23 25 33 0
-23 -25 -33 0
8 24 31 0
-8 -24 -31 0
17 24 32 0
-17 -24 -32 0
24 26 33 0
-24 -26 -33 0
9 25 31 0
-9 -25 -31 0
18 25 32 0
-18 -25 -32 0
25 27 33 0
-25 -27 -33 0
1 26 30 0
-1 -26 -30 0
10 26 31 0
-10 -26 -31 0
19 26 32 0
-19 -26 -32 0
26 28 33 0
-26 -28 -33 0
2 27 30 0
-2 -27 -30 0
11 27 31 0
-11 -27 -31 0
20 27 32 0
-20 -27 -32 0
27 29 33 0
-27 -29 -33 0
3 28 30 0
-3 -28 -30 0
12 28 31 0
-12 -28 -31 0
21 28 32 0
-21 -28 -32 0
28 30 33 0
-28 -30 -33 0
4 29 30 0
-4 -29 -30 0
13 29 31 0
-13 -29 -31 0
22 29 32 0
-22 -29 -32 0
29 31 33 0
-29 -31 -33 0
5 30 0
-5 -30 0
14 30 31 0
-14 -30 -31 0
23 30 32 0
-23 -30 -32 0
30 32 33 0
-30 -32 -33 0
6 30 31 0
-6 -30 -31 0
15 31 0
-15 -31 0
24 31 32 0
-24 -31 -32 0
31 33 0
-31 -33 0
7 30 32 0
-7 -30 -32 0
16 31 32 0
-16 -31 -32 0
25 32 0
-25 -32 0
8 30 33 0
-8 -30 -33 0
17 31 33 0
-17 -31 -33 0
26 32 33 0
-26 -32 -33 0
