certificates/rado_a9_c295_N33.drat
-33 0
31 0
-15 0
13 0
17 0
-29 0
-1 0
27 0
3 0
-11 0
-19 0
9 0
21 0
-25 0
-5 0
23 0
32 0
7 0
30 0
0
